
--- Job BM_ref.gms Start 04/12/18 18:27:24 25.0.1 r65189 WEX-WEI x86 64bit/MS Windows
GAMS 25.0.1   Copyright (C) 1987-2018 GAMS Development. All rights reserved
Licensee: Eval License Carnegie Mellon University        G180112/0001AS-GEN
          Dept. of Chemical Engineering                              DC9476
          License for teaching and research at degree granting institutions
          License Admin: Ignacio E. Grossmann                              
--- Starting continued compilation
--- Workfile was generated under GAMS version WEX250-250
--- BM_ref.gms(34) 3 Mb
--- .max_time_ref.gms(7) 3 Mb
--- BM_ref.gms(55) 3 Mb
--- Starting execution: elapsed 0:00:00.006
--- BM_ref.gms(215) 3 Mb
--- Generating RMIP model prob
--- BM_ref.gms(219) 3 Mb
---   519 rows  139 columns  1,418 non-zeroes
---   128 discrete-columns
--- Executing CPLEX: elapsed 0:00:00.026

IBM ILOG CPLEX   25.0.1 r65189 Released Jan 17, 2018 WEI x86 64bit/MS Windows 
--- GAMS/Cplex licensed for continuous and discrete problems.
Cplex 12.8.0.0

Reading parameter(s) from "C:\Users\debernal\Dropbox\Ubuntu\GDP_NN\GDP_Refomulation_NN\GAMS\Logic_based_B_B_strip_4_5_newform\cplex.opt"
>>  randomseed 1
Finished reading from "C:\Users\debernal\Dropbox\Ubuntu\GDP_NN\GDP_Refomulation_NN\GAMS\Logic_based_B_B_strip_4_5_newform\cplex.opt"
Reading data...
Starting Cplex...
Space for names approximately 0.01 Mb
Use option 'names no' to turn use of names off
CPXPARAM_Advance                                 0
CPXPARAM_Simplex_Limits_Iterations               2000000000
CPXPARAM_TimeLimit                               36000
CPXPARAM_Threads                                 1
CPXPARAM_Parallel                                1
CPXPARAM_Tune_TimeLimit                          7200
CPXPARAM_RandomSeed                              1
Tried aggregator 1 time.
LP Presolve eliminated 128 rows and 0 columns.
Reduced LP has 391 rows, 139 columns, and 1290 nonzeros.
Presolve time = 0.06 sec. (0.23 ticks)
Initializing dual steep norms . . .

Iteration log . . .
Iteration:     1   Scaled dual infeas =             0.000000
Iteration:     2   Dual objective     =             9.000000
LP status(1): optimal
Cplex Time: 0.06sec (det. 0.88 ticks)

Optimal solution found.
Objective :           9.000000

--- Restarting execution
--- BM_ref.gms(219) 2 Mb
--- Reading solution for model prob
--- Executing after solve: elapsed 0:00:00.177
--- BM_ref.gms(221) 3 Mb
--- Generating MIP model prob
--- BM_ref.gms(223) 3 Mb
---   519 rows  139 columns  1,418 non-zeroes
---   128 discrete-columns
--- Executing CPLEX: elapsed 0:00:00.192

IBM ILOG CPLEX   25.0.1 r65189 Released Jan 17, 2018 WEI x86 64bit/MS Windows 
--- GAMS/Cplex licensed for continuous and discrete problems.
Cplex 12.8.0.0

Reading parameter(s) from "C:\Users\debernal\Dropbox\Ubuntu\GDP_NN\GDP_Refomulation_NN\GAMS\Logic_based_B_B_strip_4_5_newform\cplex.opt"
>>  randomseed 1
Finished reading from "C:\Users\debernal\Dropbox\Ubuntu\GDP_NN\GDP_Refomulation_NN\GAMS\Logic_based_B_B_strip_4_5_newform\cplex.opt"
Reading data...
Starting Cplex...
Space for names approximately 0.01 Mb
Use option 'names no' to turn use of names off
CPXPARAM_Advance                                 0
CPXPARAM_Simplex_Limits_Iterations               2000000000
CPXPARAM_TimeLimit                               36000
CPXPARAM_WorkDir                                 "C:\Users\debernal\Dropbox\Ubuntu\GDP_NN\GDP_Refomulation_NN\GAMS\Logic_based_B_B_strip_4_5_newform\225a\"
CPXPARAM_Threads                                 1
CPXPARAM_Parallel                                1
CPXPARAM_Tune_TimeLimit                          7200
CPXPARAM_RandomSeed                              1
CPXPARAM_MIP_Tolerances_AbsMIPGap                0
CPXPARAM_MIP_Tolerances_MIPGap                   0.001
CPXPARAM_MIP_Display                             4
Found incumbent of value 20.000000 after 0.00 sec. (0.03 ticks)
Tried aggregator 1 time.
MIP Presolve eliminated 128 rows and 0 columns.
MIP Presolve modified 768 coefficients.
Reduced MIP has 391 rows, 139 columns, and 1290 nonzeros.
Reduced MIP has 128 binaries, 0 generals, 0 SOSs, and 0 indicators.
Presolve time = 0.00 sec. (0.89 ticks)
Probing time = 0.00 sec. (2.35 ticks)
Tried aggregator 1 time.
Reduced MIP has 391 rows, 139 columns, and 1290 nonzeros.
Reduced MIP has 128 binaries, 0 generals, 0 SOSs, and 0 indicators.
Presolve time = 0.02 sec. (1.00 ticks)
Probing time = 0.00 sec. (2.35 ticks)
Clique table members: 625.
MIP emphasis: balance optimality and feasibility.
MIP search method: dynamic search.
Parallel mode: none, using 1 thread.
Tried aggregator 1 time.
No LP presolve or aggregator reductions.
Presolve time = 0.00 sec. (0.15 ticks)
Initializing dual steep norms . . .

Iteration log . . .
Iteration:     1   Dual objective     =             9.000000
Root relaxation solution time = 0.00 sec. (0.55 ticks)

        Nodes                                         Cuts/
   Node  Left     Objective  IInf  Best Integer    Best Bound    ItCnt     Gap

*     0+    0                           20.0000        9.0000            55.00%
Found incumbent of value 20.000000 after 0.02 sec. (8.27 ticks)
      0     0        9.0000     4       20.0000        9.0000        2   55.00%
      0     0        9.0000     4       20.0000      Cuts: 12       11   55.00%
      0     0        9.0000     4       20.0000      Cuts: 14       17   55.00%
*     0+    0                            9.0000        9.0000             0.00%
Found incumbent of value 9.000000 after 0.03 sec. (13.33 ticks)
      0     0        cutoff              9.0000        9.0000       17    0.00%
Elapsed time = 0.03 sec. (13.45 ticks, tree = 0.01 MB, solutions = 2)

Implied bound cuts applied:  15
Flow cuts applied:  4
Mixed integer rounding cuts applied:  5
Gomory fractional cuts applied:  2

Root node processing (before b&c):
  Real time             =    0.03 sec. (13.46 ticks)
Sequential b&c:
  Real time             =    0.00 sec. (0.00 ticks)
                          ------------
Total (root+branch&cut) =    0.03 sec. (13.46 ticks)
MIP status(101): integer optimal solution
Cplex Time: 0.06sec (det. 13.46 ticks)
Fixing integer variables, and solving final LP...
CPXPARAM_Advance                                 2
CPXPARAM_Simplex_Limits_Iterations               2000000000
CPXPARAM_TimeLimit                               36000
CPXPARAM_WorkDir                                 "C:\Users\debernal\Dropbox\Ubuntu\GDP_NN\GDP_Refomulation_NN\GAMS\Logic_based_B_B_strip_4_5_newform\225a\"
CPXPARAM_Threads                                 1
CPXPARAM_Parallel                                1
CPXPARAM_Tune_TimeLimit                          7200
CPXPARAM_RandomSeed                              1
CPXPARAM_MIP_Tolerances_AbsMIPGap                0
CPXPARAM_MIP_Tolerances_MIPGap                   0.001
CPXPARAM_MIP_Display                             4
Tried aggregator 1 time.
LP Presolve eliminated 519 rows and 139 columns.
All rows and columns eliminated.
Presolve time = 0.00 sec. (0.17 ticks)
Fixed MIP status(1): optimal
Cplex Time: 0.00sec (det. 0.33 ticks)

Proven optimal solution.

MIP Solution:            9.000000    (17 iterations, 0 nodes)
Final Solve:             9.000000    (0 iterations)

Best possible:           9.000000
Absolute gap:            0.000000
Relative gap:            0.000000

--- Restarting execution
--- BM_ref.gms(223) 2 Mb
--- Reading solution for model prob
--- Executing after solve: elapsed 0:00:00.331
--- BM_ref.gms(232) 3 Mb
--- GDX File C:\Users\debernal\Dropbox\Ubuntu\GDP_NN\GDP_Refomulation_NN\GAMS\Logic_based_B_B_strip_4_5_newform\res_prob.gdx
--- BM_ref.gms(234) 3 Mb
--- GDX File C:\Users\debernal\Dropbox\Ubuntu\GDP_NN\GDP_Refomulation_NN\GAMS\Logic_based_B_B_strip_4_5_newform\BigM.gdx
*** Status: Normal completion
--- Job BM_ref.gms Stop 04/12/18 18:27:24 elapsed 0:00:00.341
